c
c generated by mike
c
p cnf 128 600
2 0
11 0
20 0
29 0
38 0
47 0
56 0
57 0
-17 -2 0
17 2 0
-51 -17 0
51 17 0
-36 -27 0
36 27 0
-61 -36 0
61 36 0
-65 0
-1 65 0
-65 -65 65 0
-66 -73 65 0
-67 -81 65 0
-68 -89 65 0
-69 -97 65 0
-70 -105 65 0
-71 -113 65 0
-72 -121 65 0
-2 66 0
-65 -66 66 0
-66 -74 66 0
-67 -82 66 0
-68 -90 66 0
-69 -98 66 0
-70 -106 66 0
-71 -114 66 0
-72 -122 66 0
-3 67 0
-65 -67 67 0
-66 -75 67 0
-67 -83 67 0
-68 -91 67 0
-69 -99 67 0
-70 -107 67 0
-71 -115 67 0
-72 -123 67 0
-4 68 0
-65 -68 68 0
-66 -76 68 0
-67 -84 68 0
-68 -92 68 0
-69 -100 68 0
-70 -108 68 0
-71 -116 68 0
-72 -124 68 0
-5 69 0
-65 -69 69 0
-66 -77 69 0
-67 -85 69 0
-68 -93 69 0
-69 -101 69 0
-70 -109 69 0
-71 -117 69 0
-72 -125 69 0
-6 70 0
-65 -70 70 0
-66 -78 70 0
-67 -86 70 0
-68 -94 70 0
-69 -102 70 0
-70 -110 70 0
-71 -118 70 0
-72 -126 70 0
-7 71 0
-65 -71 71 0
-66 -79 71 0
-67 -87 71 0
-68 -95 71 0
-69 -103 71 0
-70 -111 71 0
-71 -119 71 0
-72 -127 71 0
-8 72 0
-65 -72 72 0
-66 -80 72 0
-67 -88 72 0
-68 -96 72 0
-69 -104 72 0
-70 -112 72 0
-71 -120 72 0
-72 -128 72 0
-74 0
-9 73 0
-73 -65 73 0
-74 -73 73 0
-75 -81 73 0
-76 -89 73 0
-77 -97 73 0
-78 -105 73 0
-79 -113 73 0
-80 -121 73 0
-10 74 0
-73 -66 74 0
-74 -74 74 0
-75 -82 74 0
-76 -90 74 0
-77 -98 74 0
-78 -106 74 0
-79 -114 74 0
-80 -122 74 0
-11 75 0
-73 -67 75 0
-74 -75 75 0
-75 -83 75 0
-76 -91 75 0
-77 -99 75 0
-78 -107 75 0
-79 -115 75 0
-80 -123 75 0
-12 76 0
-73 -68 76 0
-74 -76 76 0
-75 -84 76 0
-76 -92 76 0
-77 -100 76 0
-78 -108 76 0
-79 -116 76 0
-80 -124 76 0
-13 77 0
-73 -69 77 0
-74 -77 77 0
-75 -85 77 0
-76 -93 77 0
-77 -101 77 0
-78 -109 77 0
-79 -117 77 0
-80 -125 77 0
-14 78 0
-73 -70 78 0
-74 -78 78 0
-75 -86 78 0
-76 -94 78 0
-77 -102 78 0
-78 -110 78 0
-79 -118 78 0
-80 -126 78 0
-15 79 0
-73 -71 79 0
-74 -79 79 0
-75 -87 79 0
-76 -95 79 0
-77 -103 79 0
-78 -111 79 0
-79 -119 79 0
-80 -127 79 0
-16 80 0
-73 -72 80 0
-74 -80 80 0
-75 -88 80 0
-76 -96 80 0
-77 -104 80 0
-78 -112 80 0
-79 -120 80 0
-80 -128 80 0
-83 0
-17 81 0
-81 -65 81 0
-82 -73 81 0
-83 -81 81 0
-84 -89 81 0
-85 -97 81 0
-86 -105 81 0
-87 -113 81 0
-88 -121 81 0
-18 82 0
-81 -66 82 0
-82 -74 82 0
-83 -82 82 0
-84 -90 82 0
-85 -98 82 0
-86 -106 82 0
-87 -114 82 0
-88 -122 82 0
-19 83 0
-81 -67 83 0
-82 -75 83 0
-83 -83 83 0
-84 -91 83 0
-85 -99 83 0
-86 -107 83 0
-87 -115 83 0
-88 -123 83 0
-20 84 0
-81 -68 84 0
-82 -76 84 0
-83 -84 84 0
-84 -92 84 0
-85 -100 84 0
-86 -108 84 0
-87 -116 84 0
-88 -124 84 0
-21 85 0
-81 -69 85 0
-82 -77 85 0
-83 -85 85 0
-84 -93 85 0
-85 -101 85 0
-86 -109 85 0
-87 -117 85 0
-88 -125 85 0
-22 86 0
-81 -70 86 0
-82 -78 86 0
-83 -86 86 0
-84 -94 86 0
-85 -102 86 0
-86 -110 86 0
-87 -118 86 0
-88 -126 86 0
-23 87 0
-81 -71 87 0
-82 -79 87 0
-83 -87 87 0
-84 -95 87 0
-85 -103 87 0
-86 -111 87 0
-87 -119 87 0
-88 -127 87 0
-24 88 0
-81 -72 88 0
-82 -80 88 0
-83 -88 88 0
-84 -96 88 0
-85 -104 88 0
-86 -112 88 0
-87 -120 88 0
-88 -128 88 0
-92 0
-25 89 0
-89 -65 89 0
-90 -73 89 0
-91 -81 89 0
-92 -89 89 0
-93 -97 89 0
-94 -105 89 0
-95 -113 89 0
-96 -121 89 0
-26 90 0
-89 -66 90 0
-90 -74 90 0
-91 -82 90 0
-92 -90 90 0
-93 -98 90 0
-94 -106 90 0
-95 -114 90 0
-96 -122 90 0
-27 91 0
-89 -67 91 0
-90 -75 91 0
-91 -83 91 0
-92 -91 91 0
-93 -99 91 0
-94 -107 91 0
-95 -115 91 0
-96 -123 91 0
-28 92 0
-89 -68 92 0
-90 -76 92 0
-91 -84 92 0
-92 -92 92 0
-93 -100 92 0
-94 -108 92 0
-95 -116 92 0
-96 -124 92 0
-29 93 0
-89 -69 93 0
-90 -77 93 0
-91 -85 93 0
-92 -93 93 0
-93 -101 93 0
-94 -109 93 0
-95 -117 93 0
-96 -125 93 0
-30 94 0
-89 -70 94 0
-90 -78 94 0
-91 -86 94 0
-92 -94 94 0
-93 -102 94 0
-94 -110 94 0
-95 -118 94 0
-96 -126 94 0
-31 95 0
-89 -71 95 0
-90 -79 95 0
-91 -87 95 0
-92 -95 95 0
-93 -103 95 0
-94 -111 95 0
-95 -119 95 0
-96 -127 95 0
-32 96 0
-89 -72 96 0
-90 -80 96 0
-91 -88 96 0
-92 -96 96 0
-93 -104 96 0
-94 -112 96 0
-95 -120 96 0
-96 -128 96 0
-101 0
-33 97 0
-97 -65 97 0
-98 -73 97 0
-99 -81 97 0
-100 -89 97 0
-101 -97 97 0
-102 -105 97 0
-103 -113 97 0
-104 -121 97 0
-34 98 0
-97 -66 98 0
-98 -74 98 0
-99 -82 98 0
-100 -90 98 0
-101 -98 98 0
-102 -106 98 0
-103 -114 98 0
-104 -122 98 0
-35 99 0
-97 -67 99 0
-98 -75 99 0
-99 -83 99 0
-100 -91 99 0
-101 -99 99 0
-102 -107 99 0
-103 -115 99 0
-104 -123 99 0
-36 100 0
-97 -68 100 0
-98 -76 100 0
-99 -84 100 0
-100 -92 100 0
-101 -100 100 0
-102 -108 100 0
-103 -116 100 0
-104 -124 100 0
-37 101 0
-97 -69 101 0
-98 -77 101 0
-99 -85 101 0
-100 -93 101 0
-101 -101 101 0
-102 -109 101 0
-103 -117 101 0
-104 -125 101 0
-38 102 0
-97 -70 102 0
-98 -78 102 0
-99 -86 102 0
-100 -94 102 0
-101 -102 102 0
-102 -110 102 0
-103 -118 102 0
-104 -126 102 0
-39 103 0
-97 -71 103 0
-98 -79 103 0
-99 -87 103 0
-100 -95 103 0
-101 -103 103 0
-102 -111 103 0
-103 -119 103 0
-104 -127 103 0
-40 104 0
-97 -72 104 0
-98 -80 104 0
-99 -88 104 0
-100 -96 104 0
-101 -104 104 0
-102 -112 104 0
-103 -120 104 0
-104 -128 104 0
-110 0
-41 105 0
-105 -65 105 0
-106 -73 105 0
-107 -81 105 0
-108 -89 105 0
-109 -97 105 0
-110 -105 105 0
-111 -113 105 0
-112 -121 105 0
-42 106 0
-105 -66 106 0
-106 -74 106 0
-107 -82 106 0
-108 -90 106 0
-109 -98 106 0
-110 -106 106 0
-111 -114 106 0
-112 -122 106 0
-43 107 0
-105 -67 107 0
-106 -75 107 0
-107 -83 107 0
-108 -91 107 0
-109 -99 107 0
-110 -107 107 0
-111 -115 107 0
-112 -123 107 0
-44 108 0
-105 -68 108 0
-106 -76 108 0
-107 -84 108 0
-108 -92 108 0
-109 -100 108 0
-110 -108 108 0
-111 -116 108 0
-112 -124 108 0
-45 109 0
-105 -69 109 0
-106 -77 109 0
-107 -85 109 0
-108 -93 109 0
-109 -101 109 0
-110 -109 109 0
-111 -117 109 0
-112 -125 109 0
-46 110 0
-105 -70 110 0
-106 -78 110 0
-107 -86 110 0
-108 -94 110 0
-109 -102 110 0
-110 -110 110 0
-111 -118 110 0
-112 -126 110 0
-47 111 0
-105 -71 111 0
-106 -79 111 0
-107 -87 111 0
-108 -95 111 0
-109 -103 111 0
-110 -111 111 0
-111 -119 111 0
-112 -127 111 0
-48 112 0
-105 -72 112 0
-106 -80 112 0
-107 -88 112 0
-108 -96 112 0
-109 -104 112 0
-110 -112 112 0
-111 -120 112 0
-112 -128 112 0
-119 0
-49 113 0
-113 -65 113 0
-114 -73 113 0
-115 -81 113 0
-116 -89 113 0
-117 -97 113 0
-118 -105 113 0
-119 -113 113 0
-120 -121 113 0
-50 114 0
-113 -66 114 0
-114 -74 114 0
-115 -82 114 0
-116 -90 114 0
-117 -98 114 0
-118 -106 114 0
-119 -114 114 0
-120 -122 114 0
-51 115 0
-113 -67 115 0
-114 -75 115 0
-115 -83 115 0
-116 -91 115 0
-117 -99 115 0
-118 -107 115 0
-119 -115 115 0
-120 -123 115 0
-52 116 0
-113 -68 116 0
-114 -76 116 0
-115 -84 116 0
-116 -92 116 0
-117 -100 116 0
-118 -108 116 0
-119 -116 116 0
-120 -124 116 0
-53 117 0
-113 -69 117 0
-114 -77 117 0
-115 -85 117 0
-116 -93 117 0
-117 -101 117 0
-118 -109 117 0
-119 -117 117 0
-120 -125 117 0
-54 118 0
-113 -70 118 0
-114 -78 118 0
-115 -86 118 0
-116 -94 118 0
-117 -102 118 0
-118 -110 118 0
-119 -118 118 0
-120 -126 118 0
-55 119 0
-113 -71 119 0
-114 -79 119 0
-115 -87 119 0
-116 -95 119 0
-117 -103 119 0
-118 -111 119 0
-119 -119 119 0
-120 -127 119 0
-56 120 0
-113 -72 120 0
-114 -80 120 0
-115 -88 120 0
-116 -96 120 0
-117 -104 120 0
-118 -112 120 0
-119 -120 120 0
-120 -128 120 0
-128 0
-57 121 0
-121 -65 121 0
-122 -73 121 0
-123 -81 121 0
-124 -89 121 0
-125 -97 121 0
-126 -105 121 0
-127 -113 121 0
-128 -121 121 0
-58 122 0
-121 -66 122 0
-122 -74 122 0
-123 -82 122 0
-124 -90 122 0
-125 -98 122 0
-126 -106 122 0
-127 -114 122 0
-128 -122 122 0
-59 123 0
-121 -67 123 0
-122 -75 123 0
-123 -83 123 0
-124 -91 123 0
-125 -99 123 0
-126 -107 123 0
-127 -115 123 0
-128 -123 123 0
-60 124 0
-121 -68 124 0
-122 -76 124 0
-123 -84 124 0
-124 -92 124 0
-125 -100 124 0
-126 -108 124 0
-127 -116 124 0
-128 -124 124 0
-61 125 0
-121 -69 125 0
-122 -77 125 0
-123 -85 125 0
-124 -93 125 0
-125 -101 125 0
-126 -109 125 0
-127 -117 125 0
-128 -125 125 0
-62 126 0
-121 -70 126 0
-122 -78 126 0
-123 -86 126 0
-124 -94 126 0
-125 -102 126 0
-126 -110 126 0
-127 -118 126 0
-128 -126 126 0
-63 127 0
-121 -71 127 0
-122 -79 127 0
-123 -87 127 0
-124 -95 127 0
-125 -103 127 0
-126 -111 127 0
-127 -119 127 0
-128 -127 127 0
-64 128 0
-121 -72 128 0
-122 -80 128 0
-123 -88 128 0
-124 -96 128 0
-125 -104 128 0
-126 -112 128 0
-127 -120 128 0
-128 -128 128 0